\ENCODING=ISO-8859-1
\Problem name: bSARP

Maximize
 obj: 33.64 x(0,6,0) + 33.64 x(0,6,1) + 129.98 x(1,6,0) + 129.98 x(1,6,1)
      + 29.84 x(2,6,0) + 29.84 x(2,6,1) + 123.113333333333 x(3,6,0)
      + 123.113333333333 x(3,6,1) - 30.6666666666667 x(4,0,0)
      - 30.6666666666667 x(4,0,1) - 15.3333333333333 x(4,1,0)
      - 15.3333333333333 x(4,1,1) - 67.4666666666667 x(4,2,0)
      - 67.4666666666667 x(4,2,1) - 15.3333333333333 x(4,3,0)
      - 15.3333333333333 x(4,3,1) - 30.6666666666667 x(5,0,0)
      - 30.6666666666667 x(5,0,1) - 15.3333333333333 x(5,1,0)
      - 15.3333333333333 x(5,1,1) - 67.4666666666667 x(5,2,0)
      - 67.4666666666667 x(5,2,1) - 15.3333333333333 x(5,3,0)
      - 15.3333333333333 x(5,3,1)
Subject To
 Constraint1_0:   x(0,6,0) + x(0,6,1) + x(1,6,0) + x(1,6,1)  = 1
 Constraint1_1:   x(2,6,0) + x(2,6,1) + x(3,6,0) + x(3,6,1)  = 1
 Constraint2_0:   x(4,0,0) + x(4,0,1) + x(4,1,0) + x(4,1,1) + x(5,0,0)
                  + x(5,0,1) + x(5,1,0) + x(5,1,1)  = 1
 Constraint2_1:   x(4,2,0) + x(4,2,1) + x(4,3,0) + x(4,3,1) + x(5,2,0)
                  + x(5,2,1) + x(5,3,0) + x(5,3,1)  = 1
 Constraint3_0:   x(4,0,0) + x(4,1,0) + x(4,2,0) + x(4,3,0)  = 1
 Constraint3_1:   x(5,0,1) + x(5,1,1) + x(5,2,1) + x(5,3,1)  = 1
 Constraint4_0:   x(0,6,0) + x(1,6,0) + x(2,6,0) + x(3,6,0)  = 1
 Constraint4_1:   x(0,6,1) + x(1,6,1) + x(2,6,1) + x(3,6,1)  = 1
 Constraint5_2:   x(1,6,0) + x(1,6,1) + x(3,6,0) + x(3,6,1) <= 1
 Constraint6_0_0: x(0,6,0) - x(4,0,0) - x(5,0,0)  = 0
 Constraint6_0_1: x(0,6,1) - x(4,0,1) - x(5,0,1)  = 0
 Constraint6_1_0: x(1,6,0) - x(4,1,0) - x(5,1,0)  = 0
 Constraint6_1_1: x(1,6,1) - x(4,1,1) - x(5,1,1)  = 0
 Constraint6_2_0: x(2,6,0) - x(4,2,0) - x(5,2,0)  = 0
 Constraint6_2_1: x(2,6,1) - x(4,2,1) - x(5,2,1)  = 0
 Constraint6_3_0: x(3,6,0) - x(4,3,0) - x(5,3,0)  = 0
 Constraint6_3_1: x(3,6,1) - x(4,3,1) - x(5,3,1)  = 0
Bounds
 0 <= x(0,6,0) <= 1
 0 <= x(0,6,1) <= 1
 0 <= x(1,6,0) <= 1
 0 <= x(1,6,1) <= 1
 0 <= x(2,6,0) <= 1
 0 <= x(2,6,1) <= 1
 0 <= x(3,6,0) <= 1
 0 <= x(3,6,1) <= 1
 0 <= x(4,0,0) <= 1
 0 <= x(4,0,1) <= 1
 0 <= x(4,1,0) <= 1
 0 <= x(4,1,1) <= 1
 0 <= x(4,2,0) <= 1
 0 <= x(4,2,1) <= 1
 0 <= x(4,3,0) <= 1
 0 <= x(4,3,1) <= 1
 0 <= x(5,0,0) <= 1
 0 <= x(5,0,1) <= 1
 0 <= x(5,1,0) <= 1
 0 <= x(5,1,1) <= 1
 0 <= x(5,2,0) <= 1
 0 <= x(5,2,1) <= 1
 0 <= x(5,3,0) <= 1
 0 <= x(5,3,1) <= 1
Binaries
 x(0,6,0)  x(0,6,1)  x(1,6,0)  x(1,6,1)  x(2,6,0)  x(2,6,1)  x(3,6,0) 
 x(3,6,1)  x(4,0,0)  x(4,0,1)  x(4,1,0)  x(4,1,1)  x(4,2,0)  x(4,2,1) 
 x(4,3,0)  x(4,3,1)  x(5,0,0)  x(5,0,1)  x(5,1,0)  x(5,1,1)  x(5,2,0) 
 x(5,2,1)  x(5,3,0)  x(5,3,1) 
End
